1516470936179781721507,11,1,2,08,4,1,2,012,7,1,2,012,7,1,2,01,11,1,2,09,4,1,2,011,15,1,2,013,11,1,2,09,6,1,2,03,7,1,2,011,7,1,2,08,14,1,2,08,10,1,2,08,4,1,2,05,14,1,2,015,12,1,2,06,15,1,2,010,12,1,2,014,10,1,2,015,7,1,2,05,9,1,2,04,3,1,2,012,3,1,2,06,14,1,2,01,15,1,2,014,11,1,2,010,12,1,2,05,9,1,2,08,10,1,2,07,10,1,2,02,4,1,2,01,2,1,2,06,13,1,2,01,8,1,2,07,12,1,2,02,14,1,2,07,9,1,2,04,2,1,2,07,12,1,2,010,4,1,2,014,11,1,2,01,15,1,2,011,15,1,2,013,15,1,2,015,7,1,2,015,8,1,2,09,12,1,2,01,11,1,2,05,12,1,2,014,9,1,2,0